(set-logic QF_BV)
(declare-fun _substvar_58_ () (_ BitVec 1024))
(assert (and true true true true true true true true (not (= ((_ extract 895 768) _substvar_58_) ((_ extract 767 640) _substvar_58_))) true true true true))
(check-sat)
(exit)
